
Gurobi 9.0.1 (linux64) logging started Thu Apr 30 05:57:53 2020

Gurobi Optimizer version 9.0.1 build v9.0.1rc0 (linux64)
Optimize a model with 860 rows, 990 columns and 6912 nonzeros
Model fingerprint: 0x0cfaeb6e
Variable types: 0 continuous, 990 integer (980 binary)
Coefficient statistics:
  Matrix range     [1e+00, 5e+00]
  Objective range  [5e+00, 1e+02]
  Bounds range     [1e+00, 1e+00]
  RHS range        [1e+00, 1e+00]

User MIP start produced solution with objective 568 (0.00s)
Loaded user MIP start with objective 568

Presolve removed 182 rows and 348 columns
Presolve time: 0.06s
Presolved: 678 rows, 642 columns, 4950 nonzeros
Variable types: 0 continuous, 642 integer (634 binary)

Root relaxation: objective 4.079109e+02, 525 iterations, 0.03 seconds

    Nodes    |    Current Node    |     Objective Bounds      |     Work
 Expl Unexpl |  Obj  Depth IntInf | Incumbent    BestBd   Gap | It/Node Time

     0     0  407.91092    0  262  568.00000  407.91092  28.2%     -    0s
     0     0  419.36798    0  268  568.00000  419.36798  26.2%     -    0s
     0     0  420.26064    0  285  568.00000  420.26064  26.0%     -    0s
     0     0  420.94997    0  285  568.00000  420.94997  25.9%     -    0s
     0     0  421.06890    0  289  568.00000  421.06890  25.9%     -    0s
     0     0  421.07763    0  287  568.00000  421.07763  25.9%     -    0s
     0     0  426.77704    0  301  568.00000  426.77704  24.9%     -    0s
     0     0  427.04362    0  293  568.00000  427.04362  24.8%     -    0s
     0     0  427.20943    0  297  568.00000  427.20943  24.8%     -    0s
     0     0  427.21331    0  297  568.00000  427.21331  24.8%     -    0s
     0     0  430.50074    0  309  568.00000  430.50074  24.2%     -    0s
     0     0  430.73487    0  313  568.00000  430.73487  24.2%     -    0s
     0     0  430.78794    0  309  568.00000  430.78794  24.2%     -    0s
     0     0  430.79109    0  321  568.00000  430.79109  24.2%     -    0s
     0     0  433.51606    0  321  568.00000  433.51606  23.7%     -    1s
     0     0  433.94033    0  324  568.00000  433.94033  23.6%     -    1s
     0     0  434.07016    0  321  568.00000  434.07016  23.6%     -    1s
     0     0  434.12211    0  322  568.00000  434.12211  23.6%     -    1s
     0     0  434.12403    0  324  568.00000  434.12403  23.6%     -    1s
     0     0  434.67255    0  320  568.00000  434.67255  23.5%     -    1s
     0     0  434.78943    0  310  568.00000  434.78943  23.5%     -    1s
     0     0  434.81777    0  315  568.00000  434.81777  23.4%     -    1s
     0     0  434.82935    0  316  568.00000  434.82935  23.4%     -    1s
     0     0  434.88107    0  309  568.00000  434.88107  23.4%     -    1s
     0     0  434.88107    0  309  568.00000  434.88107  23.4%     -    1s
H    0     0                     488.0000000  434.88107  10.9%     -    1s
     0     0  434.91267    0  256  488.00000  434.91267  10.9%     -    1s
     0     0  434.91267    0  312  488.00000  434.91267  10.9%     -    1s
     0     0  434.91267    0  306  488.00000  434.91267  10.9%     -    1s
     0     0  434.91267    0  319  488.00000  434.91267  10.9%     -    1s
     0     0  434.91267    0  315  488.00000  434.91267  10.9%     -    1s
     0     0  434.91267    0  316  488.00000  434.91267  10.9%     -    1s
     0     0  434.91267    0  316  488.00000  434.91267  10.9%     -    1s
     0     0  434.91267    0  318  488.00000  434.91267  10.9%     -    2s
     0     0  435.21015    0  316  488.00000  435.21015  10.8%     -    2s
     0     0  435.49659    0  314  488.00000  435.49659  10.8%     -    2s
     0     0  435.61122    0  320  488.00000  435.61122  10.7%     -    2s
     0     0  435.75554    0  327  488.00000  435.75554  10.7%     -    2s
     0     0  435.77146    0  325  488.00000  435.77146  10.7%     -    2s
     0     0  436.83157    0  316  488.00000  436.83157  10.5%     -    2s
     0     0  437.35961    0  322  488.00000  437.35961  10.4%     -    2s
     0     0  437.42975    0  314  488.00000  437.42975  10.4%     -    2s
     0     0  437.44261    0  319  488.00000  437.44261  10.4%     -    2s
     0     0  438.23793    0  308  488.00000  438.23793  10.2%     -    2s
     0     0  438.30246    0  312  488.00000  438.30246  10.2%     -    2s
     0     0  438.34193    0  315  488.00000  438.34193  10.2%     -    2s
     0     0  438.35463    0  318  488.00000  438.35463  10.2%     -    2s
     0     0  438.70900    0  310  488.00000  438.70900  10.1%     -    2s
     0     0  438.77509    0  317  488.00000  438.77509  10.1%     -    2s
     0     0  438.78211    0  315  488.00000  438.78211  10.1%     -    2s
     0     0  439.03683    0  310  488.00000  439.03683  10.0%     -    2s
     0     0  439.10598    0  307  488.00000  439.10598  10.0%     -    2s
     0     0  439.11239    0  309  488.00000  439.11239  10.0%     -    2s
     0     0  439.71609    0  313  488.00000  439.71609  9.89%     -    2s
     0     0  439.75181    0  305  488.00000  439.75181  9.89%     -    2s
     0     0  439.75536    0  309  488.00000  439.75536  9.89%     -    2s
     0     0  440.56626    0  312  488.00000  440.56626  9.72%     -    2s
     0     0  440.89827    0  320  488.00000  440.89827  9.65%     -    3s
     0     0  440.90777    0  319  488.00000  440.90777  9.65%     -    3s
     0     0  441.27730    0  314  488.00000  441.27730  9.57%     -    3s
     0     0  441.41869    0  319  488.00000  441.41869  9.55%     -    3s
     0     0  441.44692    0  319  488.00000  441.44692  9.54%     -    3s
     0     0  441.46977    0  317  488.00000  441.46977  9.53%     -    3s
     0     0  441.46977    0  317  488.00000  441.46977  9.53%     -    3s
     0     2  441.48825    0  317  488.00000  441.48825  9.53%     -    3s
   101    54  454.98922   11  282  488.00000  445.17708  8.78%   150    5s
H  385    75                     482.0000000  467.04794  3.10%   109    7s
   741    30     cutoff   19       482.00000  478.82609  0.66%  83.4   10s

Cutting planes:
  Gomory: 1
  MIR: 25
  Inf proof: 4
  Zero half: 20
  RLT: 241

Explored 783 nodes (70229 simplex iterations) in 10.09 seconds
Thread count was 1 (of 40 available processors)

Solution count 3: 482 488 568 

Optimal solution found (tolerance 1.00e-04)
Best objective 4.820000000000e+02, best bound 4.820000000000e+02, gap 0.0000%

User-callback calls 3904, time in user-callback 0.00 sec
